p cnf 15 23
-15 -12 9 0
-15 12 -1 0
-15 11 -4 0
15 -11 -1 0
-15 10 8 0
-15 9 6 0
15 8 7 0
15 3 2 0
14 10 2 0
14 -7 6 0
-13 -11 -7 0
-13 9 2 0
13 -9 -1 0
12 -11 -5 0
-12 10 4 0
-12 -4 -3 0
11 9 -6 0
-11 -8 3 0
-10 -9 -7 0
-10 7 5 0
-9 7 -3 0
-9 6 -3 0
-4 -3 -2 0
